&BANDS
  prefix = 'ru-scf'
  outdir = './out/'
  filband = 'ru_bands.dat'
/
