&CONTROL
  calculation = 'scf'
  etot_conv_thr =   3.6000000000d-04
  forc_conv_thr =   1.0000000000d-04
  outdir = './out/'
  prefix = 'ru-kp-6'
  pseudo_dir = './pseudo/'
  tprnfor = .true.
  tstress = .true.
  verbosity = 'high'
/
&SYSTEM
  degauss =   2.0000000000d-02
  ecutrho =   1080
  ecutwfc =   90
  ibrav = 0
  nat = 36
  nosym = .false.
  ntyp = 3
  occupations = 'smearing'
/
&ELECTRONS
  conv_thr =   7.2000000000d-09
  electron_maxstep = 80
  mixing_beta =   4.0000000000d-01
/
ATOMIC_SPECIES
H      1.00794 H.pbesol-rrkjus_psl.1.0.0.UPF
Mg     24.305 Mg.pbesol-n-kjpaw_psl.0.3.0.UPF
Ru     101.07 Ru.upf
ATOMIC_POSITIONS crystal
Mg           0.2500000000       0.7500000000       0.2500000000
Mg           0.7500000000       0.7500000000       0.2500000000
Mg           0.2500000000       0.2500000000       0.7500000000
Mg           0.7500000000       0.2500000000       0.7500000000
Mg           0.7500000000       0.7500000000       0.7500000000
Mg           0.2500000000       0.7500000000       0.7500000000
Mg           0.7500000000       0.2500000000       0.2500000000
Mg           0.2500000000       0.2500000000       0.2500000000
H            0.0000000000       0.0000000000       0.7469588200
H           -0.0000000000       0.7530411800       0.5000000000
H            0.7530411800       0.0000000000       0.5000000000
H            0.0000000000       0.0000000000       0.2530411800
H           -0.0000000000       0.7469588200      -0.0000000000
H            0.2469588200       0.0000000000       0.5000000000
H           -0.0000000000       0.5000000000       0.2469588200
H           -0.0000000000       0.2530411800      -0.0000000000
H            0.7530411800       0.5000000000      -0.0000000000
H           -0.0000000000       0.5000000000       0.7530411800
H            0.0000000000       0.2469588200       0.5000000000
H            0.2469588200       0.5000000000      -0.0000000000
H            0.5000000000       0.0000000000       0.2469588200
H            0.5000000000       0.7530411800      -0.0000000000
H            0.2530411800       0.0000000000      -0.0000000000
H            0.5000000000       0.0000000000       0.7530411800
H            0.5000000000       0.7469588200       0.5000000000
H            0.7469588200       0.0000000000       0.0000000000
H            0.5000000000       0.5000000000       0.7469588200
H            0.5000000000       0.2530411800       0.5000000000
H            0.2530411800       0.5000000000       0.5000000000
H            0.5000000000       0.5000000000       0.2530411800
H            0.5000000000       0.2469588200      -0.0000000000
H            0.7469588200       0.5000000000       0.5000000000
Ru           0.0000000000       0.0000000000       0.0000000000
Ru          -0.0000000000       0.5000000000       0.5000000000
Ru           0.5000000000       0.0000000000       0.5000000000
Ru           0.5000000000       0.5000000000      -0.0000000000
K_POINTS automatic
6 6 6 0 0 0
CELL_PARAMETERS angstrom
      6.5951124400       0.0000000000       0.0000000000
      0.0000000000       6.5951124400       0.0000000000
      0.0000000000       0.0000000000       6.5951124400

