&BANDS
  prefix = 'fe-scf'
  outdir = './out/'
  filband = 'fe_bands.dat'
/
