&CONTROL
  calculation = 'scf'
  
  outdir = './out/'
  prefix = 'ru-scf'
  pseudo_dir = './pseudo/'
  tprnfor = .true.
  tstress = .true.
  verbosity = 'high'
  
/
&SYSTEM
  degauss =   2.0000000000d-02
  ecutrho =   1080
  ecutwfc =   90
  ibrav = 0
  nat = 36
  nosym = .false.
  ntyp = 3
  occupations = 'smearing'
/
&ELECTRONS
  conv_thr =   7.2000000000d-09
  electron_maxstep = 80
  mixing_beta =   4.0000000000d-01
/
ATOMIC_SPECIES
H      1.00794 H.pbesol-rrkjus_psl.1.0.0.UPF
Mg     24.305 Mg.pbesol-n-kjpaw_psl.0.3.0.UPF
Ru     101.07 Ru.upf
ATOMIC_POSITIONS (crystal)
Mg            0.2499999975        0.7500000025        0.2499999975
Mg            0.7500000025        0.7500000025        0.2499999975
Mg            0.2499999975        0.2499999975        0.7500000025
Mg            0.7500000025        0.2499999975        0.7500000025
Mg            0.7500000025        0.7500000025        0.7500000025
Mg            0.2499999975        0.7500000025        0.7500000025
Mg            0.7500000025        0.2499999975        0.2499999975
Mg            0.2499999975        0.2499999975        0.2499999975
H             0.0000000000        0.0000000000        0.7466646250
H            -0.0000000000        0.7533353487        0.5000000000
H             0.7533353487       -0.0000000000        0.5000000000
H             0.0000000000        0.0000000000        0.2533353750
H             0.0000000000        0.7466646250        0.0000000000
H             0.2466646513        0.0000000000        0.5000000000
H             0.0000000000        0.5000000000        0.2466646513
H             0.0000000000        0.2533353750        0.0000000000
H             0.7533353487        0.5000000000        0.0000000000
H             0.0000000000        0.5000000000        0.7533353487
H             0.0000000000        0.2466646513        0.5000000000
H             0.2466646513        0.5000000000        0.0000000000
H             0.5000000000        0.0000000000        0.2466646513
H             0.5000000000        0.7533353487        0.0000000000
H             0.2533353750        0.0000000000        0.0000000000
H             0.5000000000        0.0000000000        0.7533353487
H             0.5000000000        0.7466646507        0.5000000000
H             0.7466646250       -0.0000000000        0.0000000000
H             0.5000000000        0.5000000000        0.7466646507
H             0.5000000000        0.2533353493        0.5000000000
H             0.2533353493        0.5000000000        0.5000000000
H             0.5000000000        0.5000000000        0.2533353493
H             0.5000000000        0.2466646513        0.0000000000
H             0.7466646507        0.5000000000        0.5000000000
Ru            0.0000000000        0.0000000000        0.0000000000
Ru            0.0000000000        0.5000000000        0.5000000000
Ru            0.5000000000        0.0000000000        0.5000000000
Ru            0.5000000000        0.5000000000        0.0000000000
K_POINTS automatic
8 8 8 0 0 0
CELL_PARAMETERS (angstrom)
   6.592197753   0.000000000   0.000000000
   0.000000000   6.592197753   0.000000000
   0.000000000   0.000000000   6.592197753
