&CONTROL
  calculation = 'nscf' 
  outdir = './out/'
  prefix = 'fe-scf'
  pseudo_dir = './pseudo/'
  verbosity = 'high'
  restart_mode = 'restart'
/
&SYSTEM
  degauss =   2.0000000000d-02
  ecutrho =   1080
  ecutwfc =   90
  ibrav = 0
  nat = 36
  nosym = .false.
  ntyp = 3
  occupations = 'smearing' 
  nbnd = 120
/
&ELECTRONS
  conv_thr =   7.2000000000d-09
  electron_maxstep = 80
  mixing_beta =   4.0000000000d-01
/
ATOMIC_SPECIES
Fe     55.845 Fe.pbesol-spn-kjpaw_psl.0.2.1.UPF
H      1.00794 H.pbesol-rrkjus_psl.1.0.0.UPF
Mg     24.305 Mg.pbesol-n-kjpaw_psl.0.3.0.UPF
ATOMIC_POSITIONS (crystal)
Mg            0.7500000105        0.7500000105        0.2499999895
Mg            0.7500000105        0.7500000105        0.7500000105
Mg            0.7500000105        0.2499999895        0.7500000105
Mg            0.7500000105        0.2499999895        0.2499999895
Mg            0.2499999895        0.7500000105        0.7500000105
Mg            0.2499999895        0.7500000105        0.2499999895
Mg            0.2499999895        0.2499999895        0.2499999895
Mg            0.2499999895        0.2499999895        0.7500000105
Fe            0.0000000000        0.0000000000        0.0000000000
Fe            0.0000000000        0.5000000000        0.5000000000
Fe            0.5000000000        0.0000000000        0.5000000000
Fe            0.5000000000        0.5000000000        0.0000000000
H             0.0000000000        0.7566585033       -0.0000000000
H             0.5000000000        0.0000000000        0.7433413321
H             0.5000000000        0.0000000000        0.2566586679
H             0.5000000000        0.7433413321        0.0000000000
H             0.7566585033       -0.0000000000        0.0000000000
H             0.2433414967       -0.0000000000        0.0000000000
H             0.0000000000        0.2566586679        0.5000000000
H             0.5000000000        0.5000000000        0.2433413315
H             0.5000000000        0.5000000000        0.7566586685
H             0.5000000000        0.2433413315        0.5000000000
H             0.7566586685        0.5000000000        0.5000000000
H             0.2433413315        0.5000000000        0.5000000000
H             0.5000000000        0.7566586685        0.5000000000
H             0.0000000000        0.0000000000        0.2433414967
H             0.0000000000        0.0000000000        0.7566585033
H             0.0000000000        0.7433413321        0.5000000000
H             0.2566586679        0.0000000000        0.5000000000
H             0.7433413321        0.0000000000        0.5000000000
H             0.5000000000        0.2566586679        0.0000000000
H             0.0000000000        0.5000000000        0.7433413321
H             0.0000000000        0.5000000000        0.2566586679
H             0.0000000000        0.2433414967       -0.0000000000
H             0.2566586679        0.5000000000        0.0000000000
H             0.7433413321        0.5000000000        0.0000000000
K_POINTS automatic
16 16 16 0 0 0
CELL_PARAMETERS (angstrom)
   6.355052194   0.000000000   0.000000000
   0.000000000   6.355052194   0.000000000
   0.000000000   0.000000000   6.355052194
