&PROJWFC
  prefix= 'fe-scf',
  outdir= './out/',
  filpdos= 'fe_pdos.dat'
/
