&PROJWFC
  prefix= 'ru-scf',
  outdir= './out/',
  filpdos= 'ru_pdos.dat'
/

